GLPSOL--GLPK LP/MIP Solver 5.0
Parameter(s) specified in the command line:
 --lp ../modeles/5_389.lp --log 5_389.log
Reading problem data from '../modeles/5_389.lp'...
1966 rows, 3900 columns, 13640 non-zeros
1945 integer variables, all of which are binary
5877 lines were read
GLPK Integer Optimizer 5.0
1966 rows, 3900 columns, 13640 non-zeros
1945 integer variables, all of which are binary
Preprocessing...
1930 constraint coefficient(s) were reduced
1966 rows, 3895 columns, 13635 non-zeros
1945 integer variables, all of which are binary
Scaling...
 A: min|aij| =  2.643e-05  max|aij| =  4.000e+00  ratio =  1.513e+05
GM: min|aij| =  5.070e-02  max|aij| =  1.972e+01  ratio =  3.890e+02
EQ: min|aij| =  2.571e-03  max|aij| =  1.000e+00  ratio =  3.890e+02
2N: min|aij| =  1.953e-03  max|aij| =  1.763e+00  ratio =  9.025e+02
Constructing initial basis...
Size of triangular part is 1966
Solving LP relaxation...
GLPK Simplex Optimizer 5.0
1966 rows, 3895 columns, 13635 non-zeros
      0: obj =   1.000000000e+01 inf =   2.450e+01 (11)
    104: obj =   4.999372191e-01 inf =   0.000e+00 (0)
*   362: obj =  -2.236062952e+00 inf =   8.386e-15 (0)
OPTIMAL LP SOLUTION FOUND
Integer optimization begins...
Long-step dual simplex will be used
+   362: mip =     not found yet >=              -inf        (1; 0)
+   616: >>>>>  -2.236062952e+00 >=  -2.236062952e+00 < 0.1% (255; 0)
+   616: mip =  -2.236062952e+00 >=     tree is empty   0.0% (0; 509)
INTEGER OPTIMAL SOLUTION FOUND
Time used:   0.8 secs
Memory used: 5.7 Mb (6012835 bytes)
